% File represents an instance of a Composite Structure problem to be solved by a CP framework
% Created on 2025-03-26 10:41:16.186
T = 58;
n = 9;
m = 12;
edges = [(2, 1),
(5, 4),
(8, 7),
(2, 3),
(6, 5),
(8, 9),
(1, 4),
(4, 7),
(2, 5),
(5, 8),
(6, 3),
(6, 9)];
counts = [|14, 10, 14, 18,
|14, 12, 14, 18,
|14, 10, 14, 18,
|14, 6, 14, 18,
|14, 10, 14, 18,
|14, 10, 14, 20,
|14, 6, 14, 14,
|14, 10, 14, 16,
|14, 8, 14, 16|];
